Route 1: 0 69 22 71 91 1 63 3 2 84 90 0
Route 2: 0 14 45 43 80 65 56 81 93 0
Route 3: 0 10 38 25 9 53 37 41 87 19 0
Route 4: 0 79 57 83 47 13 30 5 62 26 100 0
Route 5: 0 61 50 24 48 74 76 0
Route 6: 0 95 66 17 42 39 33 18 0
Route 7: 0 21 44 89 4 6 67 28 0
Route 8: 0 72 31 35 82 78 36 0
Route 9: 0 49 86 12 92 8 70 23 54 58 99 0
Route 10: 0 85 46 73 11 52 98 29 7 88 0
Route 11: 0 94 77 60 68 20 51 0
Route 12: 0 96 55 75 64 27 15 0
Route 13: 0 34 40 59 16 97 32 0
